NAME: n60q20F.tsp, 60 nodes, semilla 555
COMMENT: Problema aleatorio de norma euclidea
DIMENSION: 60
CAPACITY: 20
EDGE_WEIGHT_TYPE: EUC_2D
NODE_COORD_SECTION
1   0.0000   0.0000
2 -190.0000 352.0000
3 -499.0000 -350.0000
4 -55.0000 313.0000
5 -219.0000 340.0000
6 -193.0000 -388.0000
7 279.0000 -430.0000
8 -47.0000 -281.0000
9 270.0000 -80.0000
10 169.0000 -240.0000
11 -291.0000 -261.0000
12 328.0000 -142.0000
13 117.0000 313.0000
14 -169.0000 -87.0000
15 474.0000 378.0000
16 -238.0000 -472.0000
17  40.0000  71.0000
18 342.0000 -415.0000
19 -414.0000 202.0000
20  13.0000 173.0000
21 -365.0000 175.0000
22 -393.0000 -492.0000
23 360.0000 417.0000
24 -229.0000 -41.0000
25 -282.0000 -25.0000
26 -433.0000 -437.0000
27 416.0000  56.0000
28 244.0000 -447.0000
29 356.0000 157.0000
30 -403.0000 -275.0000
31 223.0000 495.0000
32 -183.0000 -300.0000
33 -58.0000 249.0000
34 -313.0000 177.0000
35 -90.0000  47.0000
36  66.0000 417.0000
37 -426.0000 -369.0000
38 261.0000 -83.0000
39 -452.0000 -26.0000
40 232.0000  72.0000
41 -372.0000 -225.0000
42 244.0000 370.0000
43 -320.0000 -329.0000
44 -196.0000 -68.0000
45 -203.0000 -180.0000
46 380.0000 -51.0000
47 -270.0000 -296.0000
48 -354.0000 -35.0000
49 383.0000 -208.0000
50 419.0000 256.0000
51 491.0000 -422.0000
52 -225.0000 348.0000
53 230.0000 -258.0000
54 -72.0000 -97.0000
55  25.0000  44.0000
56 376.0000 163.0000
57 -254.0000 -306.0000
58 441.0000 -93.0000
59 -260.0000 -409.0000
60 -464.0000 -141.0000
DISPLAY_DATA_SECTION:
 1  250  250
 2  155  426
 3    0   75
 4  222  406
 5  140  420
 6  153   56
 7  389   35
 8  226  109
 9  385  210
10  334  130
11  104  119
12  414  179
13  308  406
14  165  206
15  487  439
16  131   14
17  270  285
18  421   42
19   43  351
20  256  336
21   67  337
22   53    4
23  430  458
24  135  229
25  109  237
26   33   31
27  458  278
28  372   26
29  428  328
30   48  112
31  361  497
32  158  100
33  221  374
34   93  338
35  205  273
36  283  458
37   37   65
38  380  208
39   24  237
40  366  286
41   64  137
42  372  435
43   90   85
44  152  216
45  148  160
46  440  224
47  115  102
48   73  232
49  441  146
50  459  378
51  495   39
52  137  424
53  365  121
54  214  201
55  262  272
56  438  331
57  123   97
58  470  203
59  120   45
60   18  179
DEMAND_SECTION
1 -5
2 8
3 -4
4 -8
5 8
6 2
7 -7
8 -5
9 10
10 -1
11 0
12 6
13 10
14 5
15 -5
16 -4
17 -2
18 -5
19 3
20 3
21 -3
22 -5
23 2
24 -1
25 4
26 -5
27 -5
28 3
29 8
30 0
31 -1
32 1
33 -2
34 -5
35 0
36 -5
37 -9
38 -6
39 9
40 10
41 7
42 -7
43 -7
44 3
45 10
46 10
47 -8
48 5
49 10
50 1
51 -7
52 -7
53 -1
54 -1
55 -9
56 -6
57 7
58 -7
59 8
60 0
EOF